&inputph
  prefix   = 'SiC',
  epsil    = .false.,
  fildyn   = 'SiC.dyn',
  ldisp    = .true.
  fildvscf = 'dvscf'
  nq1=6,
  nq2=6,
  nq3=6,
  tr2_ph   =  1.0d-10,
  recover = .true.
 /

