 &input
   fildyn='SiC.dyn', zasr='crystal', flfrc='SiC.fc'
 /
